32 33
27
3 3 29 14
3 4 29 3
3 5 7 0
6 3 7 30
3 7 29 7
8 3 21 30
9 3 20 3
3 10 20 6
3 11 13 4
3 12 0 3
13 3 19 0
3 14 20 16
3 15 29 17
3 18 13 15
3 22 10 8
3 23 26 7
3 24 23 6
3 25 7 5
3 27 4 6
3 4 10 4
4 4 15 0
5 4 10 0
4 6 3 0
4 7 0 15
4 10 16 22
4 11 0 22
4 18 16 4
